829387
20,21,96,30,77,41,6,75,69,18,56,10,49,93,62,31,60,32,70,74,37,48,1,9,33,57,47,95,25,78,51,79,29,40,94,26,17,12,19,43,24,59,90,54,98,71,34,46,28,11,23,65,52,22,84,73,7,66,4,92,39,14,81,86,45,87,76,38,80,99,68,13,63,72,55,44,91,53,8,89,85,3,5,64,27,2,35,42,97,36,50,88,83,15,16,82,58,61,67